num_plantas = 2;
num_clientes = 2;
num_dias = 2;

coste_produccion = [6, 8];
capacidad_maxima = [100, 120];

porcentaje_minimo = 70;
porcentaje_regimen_alto = [80, 80];
max_dias_regimen_alto = [1, 1];

pago_por_mw = [25, 20];

demanda_diaria = [|
   80, 90
  |60, 70|];
